% Auto-generated by scripts/generate_dzn.py
% problem_type   = regex
% instance       = regex_38
% source_json    = instances_json/1_medium_blowup/regex_38.json
% blowup         = 4.1
% representation = DFA

mode = 0;

var_count = 9;
Q = 41;
S = 3;
q0 = 1;
F = {29, 30, 31, 32, 33, 34, 35, 36, 37, 38, 39, 40, 41};
d_dfa = array2d(1..41, 1..3, [
  2, 1, 1,
  2, 1, 3,
  2, 4, 1,
  6, 5, 5,
  8, 7, 7,
  8, 7, 9,
  11, 10, 10,
  11, 10, 12,
  11, 13, 10,
  15, 14, 14,
  15, 14, 16,
  15, 17, 14,
  19, 18, 18,
  21, 20, 20,
  21, 20, 22,
  21, 23, 20,
  25, 24, 24,
  27, 26, 26,
  27, 26, 28,
  30, 29, 29,
  30, 29, 31,
  30, 32, 29,
  34, 33, 33,
  36, 35, 35,
  36, 35, 37,
  39, 38, 38,
  39, 38, 40,
  39, 41, 38,
  2, 1, 1,
  2, 1, 3,
  2, 4, 1,
  6, 5, 5,
  8, 7, 7,
  8, 7, 9,
  11, 10, 10,
  11, 10, 12,
  11, 13, 10,
  15, 14, 14,
  15, 14, 16,
  15, 17, 14,
  19, 18, 18
]);
d_nfa = array2d(1..41, 1..3, [
  {}, {}, {},
  {}, {}, {},
  {}, {}, {},
  {}, {}, {},
  {}, {}, {},
  {}, {}, {},
  {}, {}, {},
  {}, {}, {},
  {}, {}, {},
  {}, {}, {},
  {}, {}, {},
  {}, {}, {},
  {}, {}, {},
  {}, {}, {},
  {}, {}, {},
  {}, {}, {},
  {}, {}, {},
  {}, {}, {},
  {}, {}, {},
  {}, {}, {},
  {}, {}, {},
  {}, {}, {},
  {}, {}, {},
  {}, {}, {},
  {}, {}, {},
  {}, {}, {},
  {}, {}, {},
  {}, {}, {},
  {}, {}, {},
  {}, {}, {},
  {}, {}, {},
  {}, {}, {},
  {}, {}, {},
  {}, {}, {},
  {}, {}, {},
  {}, {}, {},
  {}, {}, {},
  {}, {}, {},
  {}, {}, {},
  {}, {}, {},
  {}, {}, {}
]);
